Gurobi 12.0.1:   lim:time = 500
  mip:bestbound = 1
Set parameter LogToConsole to value 1
  tech:outlev = 1
Set parameter InfUnbdInfo to value 1
Gurobi Optimizer version 12.0.1 build v12.0.1rc0 (win64 - Windows 11.0 (26100.2))

CPU model: Intel(R) Core(TM) i7-10700 CPU @ 2.90GHz, instruction set [SSE2|AVX|AVX2]
Thread count: 8 physical cores, 16 logical processors, using up to 16 threads

Non-default parameters:
TimeLimit  500
InfUnbdInfo  1

Optimize a model with 256 rows, 271 columns and 1465 nonzeros
Model fingerprint: 0x2595cb77
Model has 3 quadratic constraints
Variable types: 19 continuous, 252 integer (0 binary)
Coefficient statistics:
  Matrix range     [1e+00, 1e+05]
  QMatrix range    [1e+00, 1e+00]
  QLMatrix range   [2e+00, 2e+01]
  Objective range  [2e+01, 3e+02]
  Bounds range     [1e+00, 8e+01]
  RHS range        [1e+00, 1e+05]
  QRHS range       [1e+02, 1e+02]
Presolve removed 17 rows and 10 columns
Presolve time: 0.01s
Presolved: 314 rows, 333 columns, 1991 nonzeros
Variable types: 14 continuous, 319 integer (294 binary)
Found heuristic solution: objective 1421.0400000

Root relaxation: objective 6.669494e+02, 48 iterations, 0.00 seconds (0.00 work units)

    Nodes    |    Current Node    |     Objective Bounds      |     Work
 Expl Unexpl |  Obj  Depth IntInf | Incumbent    BestBd   Gap | It/Node Time

     0     0  666.94936    0   15 1421.04000  666.94936  53.1%     -    0s
H    0     0                    1359.2100000  666.94936  50.9%     -    0s
     0     0  718.68000    0   14 1359.21000  718.68000  47.1%     -    0s
H    0     0                    1274.9100000  718.68000  43.6%     -    0s
H    0     0                     937.3800000  718.68000  23.3%     -    0s
     0     0  718.68000    0   14  937.38000  718.68000  23.3%     -    0s
     0     0  718.68000    0   14  937.38000  718.68000  23.3%     -    0s
H    0     0                     910.8000000  718.68000  21.1%     -    0s
     0     0  718.68000    0   14  910.80000  718.68000  21.1%     -    0s
     0     0  718.95295    0   14  910.80000  718.95295  21.1%     -    0s
     0     0  718.95295    0   15  910.80000  718.95295  21.1%     -    0s
     0     0  718.95295    0   16  910.80000  718.95295  21.1%     -    0s
     0     0  718.95295    0   14  910.80000  718.95295  21.1%     -    0s
     0     0  718.95295    0   14  910.80000  718.95295  21.1%     -    0s
     0     0  718.95295    0   21  910.80000  718.95295  21.1%     -    0s
H    0     0                     908.7600000  718.95295  20.9%     -    0s
     0     0  718.95295    0   14  908.76000  718.95295  20.9%     -    0s
     0     0  718.95295    0   14  908.76000  718.95295  20.9%     -    0s
     0     2  730.76182    0   14  908.76000  730.76182  19.6%     -    0s

Cutting planes:
  Learned: 4
  Gomory: 15
  Cover: 1
  Implied bound: 8
  MIR: 7
  StrongCG: 1
  Zero half: 1
  RLT: 22

Explored 436 nodes (3688 simplex iterations) in 0.20 seconds (0.16 work units)
Thread count was 16 (of 16 available processors)

Solution count 6: 908.76 910.8 937.38 ... 1421.04

Optimal solution found (tolerance 1.00e-04)
Best objective 9.087600000000e+02, best bound 9.087600000000e+02, gap 0.0000%

AMPL MP initial flat model has 271 variables (0 integer, 252 binary);
Objectives: 1 linear; 
Constraints:  256 linear; 3 quadratic;

AMPL MP final model has 271 variables (0 integer, 252 binary);
Objectives: 1 linear; 
Constraints:  256 linear; 3 quadratic;


-----RESULTS INFO-----
running_time:  0.266
TC.best_bound:  908.76
TC:  908.76
MIP Gap (%):  0
=== Vehicle Routes ===
Vehicle 1: 0 → 1
Vehicle 1: 1 → 9
Vehicle 1: 2 → 3
Vehicle 1: 3 → 17
Vehicle 1: 9 → 15
Vehicle 1: 15 → 2
Vehicle 2: 0 → 8
Vehicle 2: 8 → 17
Vehicle 3: 0 → 17

=== Full Vehicle Routes ===
Vehicle 1: 0 → 1 → 9 → 15 → 2 → 3 → 0 (73<100)
Vehicle 2: 0 → 8 → 0 (44<100)
Vehicle 3: 0 → 0 (0<100)
Arc used by MRT line: y variables:
Customer assigment to PL: u variables:
4 9
5 15
6 8
7 8
Node is served by regular vehicle: g variables:
1
2
3
15
8
9
Customer assigment to Home delivery: gm variables:
1
2
3
Node total demands: ntd variables:
1 2 1
2 19 1
3 16 1
6 0 0
7 0 0
14 0 0
15 21 1
16 0 0
8 44 1
9 15 1
10 0 0
11 0 0
12 0 0
13 0 0
Customer's demand delivered to PL: l variables:
4
5
6
7
